12846.21,54.21,61.58
14568.1,47.8,54.3
13444.35,51.8,58.84
13012.02,53.52,60.8
13765.08,50.59,57.47
13672.87,50.93,57.86
12312.79,56.56,64.25
13905.49,50.08,56.89
13875.44,50.19,57.02
13393.87,51.99,59.06
13428.93,51.86,58.91
13678.2,50.91,57.84
13091.45,53.19,60.43
14020.16,49.67,56.43
13163.26,52.9,60.1
14806.76,47.03,53.43
12402.07,56.15,63.79
11663.71,59.71,67.83
12568.54,55.41,62.94
14128.25,49.29,55.99
